unsat
(:cnf-encoding-aux-vars 97
 :elim-unconstrained    3
 :max-memory            19.55
 :memory                18.83
 :nlsat-arith-var       14
 :nlsat-atoms           181
 :nlsat-bool-var        113
 :nlsat-clauses         518
 :nlsat-conflicts       76
 :nlsat-decisions       1150
 :nlsat-propagations    1257
 :num-allocs            473298
 :rlimit-count          75921
 :solve-eqs-elim-vars   68
 :solve-eqs-steps       236
 :time                  0.04
 :total-time            0.06)
